Gurobi Optimizer version 9.1.2 build v9.1.2rc0 (linux64)
Thread count: 36 physical cores, 72 logical processors, using up to 32 threads
Optimize a model with 12 rows, 57 columns and 590 nonzeros
Model fingerprint: 0xf32eec78
Model has 47 quadratic constraints
Coefficient statistics:
  Matrix range     [2e-05, 3e+00]
  QMatrix range    [1e+00, 1e+00]
  QLMatrix range   [1e+00, 1e+00]
  Objective range  [8e-03, 7e-01]
  Bounds range     [1e+00, 1e+00]
  RHS range        [1e+00, 1e+00]
Presolve removed 9 rows and 0 columns

Continuous model is non-convex -- solving as a MIP.

Presolve removed 9 rows and 0 columns
Presolve time: 0.00s
Presolved: 189 rows, 57 columns, 443 nonzeros
Presolved model has 47 bilinear constraint(s)
Variable types: 57 continuous, 0 integer (0 binary)

Root relaxation: objective -1.743721e+00, 44 iterations, 0.00 seconds

    Nodes    |    Current Node    |     Objective Bounds      |     Work
 Expl Unexpl |  Obj  Depth IntInf | Incumbent    BestBd   Gap | It/Node Time

     0     0   -1.74372    0   38          -   -1.74372      -     -    0s
H    0     0                       0.6147548   -1.74372   384%     -    0s
     0     0   -1.64739    0    1    0.61475   -1.64739   368%     -    0s
H    0     0                      -1.6450460   -1.64739  0.14%     -    0s
     0     0     cutoff    0        -1.64505   -1.64505  0.00%     -    0s

Cutting planes:
  RLT: 25
  BQP: 3

Explored 1 nodes (76 simplex iterations) in 0.01 seconds
Thread count was 32 (of 72 available processors)

Solution count 2: -1.64505 0.614755 
No other solutions better than -1.64505

Optimal solution found (tolerance 1.00e-04)
Best objective -1.645045978473e+00, best bound -1.645045978473e+00, gap 0.0000%

User-callback calls 78, time in user-callback 0.00 sec
Gurobi Optimizer version 9.1.2 build v9.1.2rc0 (linux64)
Thread count: 36 physical cores, 72 logical processors, using up to 32 threads
Optimize a model with 60 rows, 300 columns and 15500 nonzeros
Model fingerprint: 0x9260c558
Model has 250 quadratic constraints
Coefficient statistics:
  Matrix range     [1e-06, 4e+00]
  QMatrix range    [1e+00, 1e+00]
  QLMatrix range   [1e+00, 1e+00]
  Objective range  [3e-04, 1e+00]
  Bounds range     [1e+00, 1e+00]
  RHS range        [1e+00, 1e+00]
Presolve removed 12 rows and 0 columns

Continuous model is non-convex -- solving as a MIP.

Presolve removed 12 rows and 0 columns
Presolve time: 0.01s
Presolved: 1048 rows, 300 columns, 13862 nonzeros
Presolved model has 250 bilinear constraint(s)
Variable types: 300 continuous, 0 integer (0 binary)

Root relaxation: objective -1.985330e+01, 326 iterations, 0.02 seconds

    Nodes    |    Current Node    |     Objective Bounds      |     Work
 Expl Unexpl |  Obj  Depth IntInf | Incumbent    BestBd   Gap | It/Node Time

     0     0  -19.85330    0  204          -  -19.85330      -     -    0s
H    0     0                      -4.9159051  -19.85330   304%     -    0s
     0     0  -17.79983    0  186   -4.91591  -17.79983   262%     -    0s
     0     0  -17.79978    0  186   -4.91591  -17.79978   262%     -    0s
     0     0  -17.61360    0  151   -4.91591  -17.61360   258%     -    0s
     0     0  -17.61343    0  151   -4.91591  -17.61343   258%     -    0s
     0     0  -17.60344    0  124   -4.91591  -17.60344   258%     -    0s
H    0     0                     -10.7295496  -17.60344  64.1%     -    0s
     0     0  -17.60178    0  124  -10.72955  -17.60178  64.0%     -    0s
H    0     0                     -14.5172002  -17.60178  21.2%     -    0s
H    0     0                     -15.0261201  -17.60178  17.1%     -    0s
H    0     0                     -15.0265609  -17.60178  17.1%     -    0s
     0     2  -17.60178    0  124  -15.02656  -17.60178  17.1%     -    0s
* 1522  1344              73     -15.4908170  -16.90431  9.12%  61.2    1s
* 1523  1344              73     -15.4908170  -16.90431  9.12%  61.2    1s
* 1871  1476              81     -15.5456191  -16.90431  8.74%  58.5    2s
* 1972  1539              85     -15.5457027  -16.90431  8.74%  58.1    2s
* 2056  1627              83     -15.5457041  -16.90431  8.74%  58.5    2s
* 5244  2099             111     -15.5667603  -16.83752  8.16%  58.5    4s
* 5401  2061             115     -15.5682712  -16.83752  8.15%  58.0    4s
* 5402  1981             115     -15.5683017  -16.83752  8.15%  57.9    4s
* 5407  1905             115     -15.5683021  -16.83752  8.15%  57.9    4s
* 5410  1833             114     -15.5683262  -16.83752  8.15%  57.9    4s
* 5465  1747              81     -16.1234305  -16.83752  4.43%  57.7    4s
* 5482  1678              61     -16.1892144  -16.83752  4.00%  57.6    4s
* 5611  1493              57     -16.2698060  -16.83752  3.49%  56.9    4s
* 5833  1334              60     -16.2698111  -16.83752  3.49%  56.4    4s
* 5845  1275              60     -16.2698147  -16.83752  3.49%  56.4    4s
* 6829  1384              55     -16.2750828  -16.83752  3.46%  55.5    4s
* 7080  1405              60     -16.2750960  -16.83752  3.46%  54.6    4s
* 7081  1405              59     -16.2750961  -16.83752  3.46%  54.6    4s
* 7094  1405              59     -16.2752283  -16.83752  3.45%  54.5    4s
* 7219  1496              61     -16.2755164  -16.81220  3.30%  54.2    4s
* 7223  1496              62     -16.2758208  -16.81220  3.30%  54.2    4s
* 7467  1581              62     -16.2758236  -16.81220  3.30%  53.5    4s
* 7492  1581              61     -16.2760570  -16.81220  3.29%  53.5    4s
* 7495  1581              63     -16.2760718  -16.81220  3.29%  53.5    4s
* 7497  1581              64     -16.2760723  -16.81220  3.29%  53.4    4s
* 7680  1581              59     -16.2836912  -16.81220  3.25%  52.8    4s
* 7681  1581              59     -16.2836920  -16.81220  3.25%  52.8    4s
  7712  1660     cutoff   27       -16.28369  -16.81220  3.25%  52.6    5s
* 7957  1660              59     -16.2876133  -16.81220  3.22%  52.2    5s
* 8519  1816              69     -16.2879828  -16.67738  2.39%  50.4    5s
* 8676  1816              66     -16.2885670  -16.67738  2.39%  49.7    5s
* 8677  1816              66     -16.2885670  -16.67738  2.39%  49.7    5s
* 8738  1807              67     -16.2895322  -16.67738  2.38%  49.6    5s
* 8741  1807              69     -16.2895443  -16.67738  2.38%  49.6    5s
* 8742  1807              69     -16.2895443  -16.67738  2.38%  49.6    5s
* 9184  1872              52     -16.2933452  -16.48166  1.16%  48.6    5s
* 9221  1872              69     -16.2959389  -16.48166  1.14%  48.5    5s
* 9689  1845              66     -16.2968466  -16.44193  0.89%  47.3    5s
* 9694  1845              68     -16.2969394  -16.44193  0.89%  47.3    5s
* 9695  1845              68     -16.2969417  -16.44193  0.89%  47.3    5s
* 9700  1845              69     -16.2969424  -16.44193  0.89%  47.3    5s
* 9711  1845              53     -16.2973169  -16.44193  0.89%  47.2    5s
* 9713  1845              54     -16.2973169  -16.44193  0.89%  47.2    5s
* 9714  1845              54     -16.2973172  -16.44193  0.89%  47.2    5s
* 9718  1845              54     -16.2973174  -16.44193  0.89%  47.2    5s
* 9720  1845              54     -16.2973174  -16.44193  0.89%  47.2    5s
* 9735  1845              61     -16.2973177  -16.44193  0.89%  47.1    5s
* 9765  1845              64     -16.3046080  -16.44193  0.84%  47.0    5s
* 9920  1798              69     -16.3068124  -16.41983  0.69%  46.6    5s
* 9921  1798              69     -16.3068171  -16.41983  0.69%  46.6    5s
*10370  1959              55     -16.3071129  -16.41811  0.68%  45.6    5s
*10621  1959              56     -16.3071572  -16.41811  0.68%  44.9    5s
*10965  2123              59     -16.3073941  -16.41811  0.68%  44.0    5s
*10966  2123              59     -16.3074016  -16.41811  0.68%  44.0    5s
*10969  2123              60     -16.3074109  -16.41811  0.68%  44.0    5s
*10972  2123              60     -16.3074150  -16.41811  0.68%  44.0    5s
*11059  2123              76     -16.3101042  -16.41811  0.66%  43.7    5s
*11060  2123              76     -16.3101043  -16.41811  0.66%  43.7    5s
*11411  2123              81     -16.3136269  -16.41811  0.64%  42.8    5s
*11416  2123              81     -16.3136286  -16.41811  0.64%  42.7    5s
*11652  2222              86     -16.3179818  -16.41508  0.60%  42.2    6s
*12133  2303              68     -16.3180065  -16.39319  0.46%  40.9    6s
*12136  2303              68     -16.3180269  -16.39319  0.46%  40.9    6s
*12139  2303              68     -16.3182459  -16.39319  0.46%  40.9    6s
*12141  2303              69     -16.3182703  -16.39319  0.46%  40.9    6s
*12142  2303              69     -16.3182711  -16.39319  0.46%  40.9    6s
*12144  2303              68     -16.3182957  -16.39319  0.46%  40.9    6s
*12145  2303              68     -16.3182959  -16.39319  0.46%  40.9    6s
*12232  2303              75     -16.3212046  -16.37525  0.33%  40.8    6s
*12536  2303              63     -16.3223968  -16.37525  0.32%  40.0    6s
*12629  2303              67     -16.3285723  -16.37525  0.29%  39.7    6s
*12716  2303              74     -16.3301354  -16.37525  0.28%  39.5    6s
*12717  2303              74     -16.3301355  -16.37525  0.28%  39.5    6s
*13074  2237              63     -16.3343409  -16.36767  0.20%  38.7    6s
*13077  2237              64     -16.3343758  -16.36767  0.20%  38.7    6s
*13276  2237              63     -16.3372040  -16.36767  0.19%  38.2    6s
*13476  2237              64     -16.3381980  -16.36767  0.18%  37.7    6s
*13775  2207              65     -16.3410779  -16.36163  0.13%  37.0    6s
*13778  2207              67     -16.3410845  -16.36163  0.13%  37.0    6s
*13779  2207              67     -16.3410846  -16.36163  0.13%  37.0    6s
*14500  2207              72     -16.3412225  -16.36163  0.12%  35.4    6s
*14678  2030              68     -16.3422332  -16.36163  0.12%  35.1    6s
*14680  2030              67     -16.3422373  -16.36163  0.12%  35.1    6s
*14752  2030              68     -16.3423480  -16.36163  0.12%  34.9    6s
*14904  2030              73     -16.3424700  -16.36163  0.12%  34.6    6s
*15616  1194              70     -16.3425149  -16.36158  0.12%  33.2    6s
*15674  1194              67     -16.3425177  -16.35036  0.05%  33.1    6s
*15675  1194              67     -16.3425181  -16.35036  0.05%  33.1    6s
*15679  1194              67     -16.3425185  -16.35036  0.05%  33.1    6s
*15680  1194              67     -16.3425190  -16.35036  0.05%  33.1    6s
*15911  1194              69     -16.3425327  -16.34488  0.01%  32.7    6s
*15949  1194              66     -16.3425518  -16.34488  0.01%  32.6    6s
*15974  1194              67     -16.3426118  -16.34488  0.01%  32.6    6s
*17033    41              66     -16.3426338  -16.34305  0.00%  30.6    6s
*17046    41              66     -16.3426579  -16.34305  0.00%  30.6    6s
*17047    41              66     -16.3426598  -16.34305  0.00%  30.6    6s

Explored 18090 nodes (522034 simplex iterations) in 6.78 seconds
Thread count was 32 (of 72 available processors)

Solution count 10: -16.3427 -16.3427 -16.3426 ... -16.3425

Optimal solution found (tolerance 1.00e-04)
Best objective -1.634265979297e+01, best bound -1.634266361582e+01, gap 0.0000%

User-callback calls 37174, time in user-callback 0.01 sec



objective value: -16.342659792967996
objective bound: -16.342663615824964
x_opt: [0.0, 1.0, 1.0, 0.0, 0.0, 0.0, 1.0, 1.0, 0.0, 0.0, 0.26159235339890813, 0.3988390334665134, 0.0, 1.0, 1.0, 1.0, 0.0, 1.0, 0.0, 0.0, 0.0, 1.0, 1.0, 1.0, 0.0, 1.0, 1.0, 1.0, 0.0, 0.8191030630739092, 1.0, 0.7246260730638567, 0.0, 0.19970514576174095, 1.0, 1.0, 1.0, 1.0, 0.49950834235864366, 1.0, 0.8895829130921002, 0.11690241163074484, 1.0, 0.0, 0.0, 0.7114989685584189, 0.1489709140435651, 1.610842032030102e-5, 0.0, 1.0]
GUROBI solution time: 6.780680894851685

